# Generated by ConicBenchmarkUtilities.jl
VER
2

OBJSENSE
MIN

VAR
100 1
F 100

INT
30
18
19
20
21
22
23
24
25
26
27
28
29
30
31
32
62
64
66
68
70
72
73
74
75
77
79
81
82
83
84

CON
313 295
L= 1
L= 1
L= 1
L= 1
L= 1
L= 1
L= 1
L= 1
L= 1
L= 1
L= 1
L= 1
L= 1
EXP 3
L+ 1
EXP 3
L+ 1
EXP 3
L+ 1
L+ 1
L+ 1
L+ 1
L+ 1
L+ 1
L+ 1
EXP 3
L+ 1
EXP 3
L+ 1
EXP 3
L+ 1
L+ 1
L+ 1
L+ 1
L+ 1
L+ 1
L+ 1
L+ 1
L+ 1
L+ 1
L+ 1
L+ 1
L+ 1
L+ 1
L+ 1
L+ 1
L+ 1
L+ 1
L+ 1
EXP 3
L+ 1
EXP 3
L+ 1
EXP 3
L+ 1
L+ 1
L+ 1
L+ 1
L+ 1
L+ 1
L+ 1
L+ 1
L+ 1
L+ 1
L+ 1
L+ 1
L+ 1
L+ 1
L+ 1
L+ 1
L+ 1
L+ 1
L+ 1
L+ 1
L+ 1
L+ 1
L+ 1
L+ 1
L+ 1
L+ 1
L+ 1
L+ 1
L+ 1
L+ 1
L+ 1
L+ 1
L+ 1
L+ 1
L+ 1
L+ 1
L+ 1
L+ 1
L+ 1
L+ 1
L+ 1
L+ 1
L+ 1
L+ 1
L+ 1
L+ 1
L+ 1
L+ 1
L+ 1
L+ 1
L+ 1
L+ 1
L+ 1
L+ 1
L+ 1
L+ 1
L+ 1
L+ 1
L+ 1
L+ 1
L+ 1
L+ 1
L+ 1
L+ 1
L+ 1
L+ 1
L+ 1
L+ 1
L+ 1
L+ 1
L+ 1
L+ 1
L+ 1
L+ 1
L+ 1
L+ 1
L+ 1
L+ 1
L+ 1
L+ 1
L+ 1
L+ 1
L+ 1
L+ 1
L+ 1
L+ 1
L+ 1
L+ 1
L+ 1
L+ 1
L+ 1
L+ 1
L+ 1
L+ 1
L+ 1
L+ 1
L+ 1
L+ 1
L+ 1
L+ 1
L+ 1
L+ 1
L+ 1
L+ 1
L+ 1
L+ 1
L+ 1
L+ 1
L+ 1
L+ 1
L+ 1
L+ 1
L+ 1
L+ 1
L+ 1
L+ 1
L+ 1
L+ 1
L= 1
L= 1
L= 1
L+ 1
L+ 1
L+ 1
L+ 1
L+ 1
L+ 1
L+ 1
L+ 1
L+ 1
L+ 1
L+ 1
L+ 1
L+ 1
L+ 1
L+ 1
L+ 1
L+ 1
L+ 1
L+ 1
L+ 1
L+ 1
L+ 1
L+ 1
L+ 1
L+ 1
L+ 1
L+ 1
L+ 1
L+ 1
L+ 1
L+ 1
L+ 1
L+ 1
L+ 1
L+ 1
L+ 1
L+ 1
L+ 1
L+ 1
L+ 1
L+ 1
L+ 1
L+ 1
L+ 1
L+ 1
L+ 1
L+ 1
L+ 1
L+ 1
L+ 1
L+ 1
L+ 1
L+ 1
L+ 1
L+ 1
L+ 1
L+ 1
L+ 1
L+ 1
L+ 1
L+ 1
L+ 1
L+ 1
L+ 1
L+ 1
L+ 1
L+ 1
L+ 1
L+ 1
L+ 1
L+ 1
L+ 1
L+ 1
L+ 1
L+ 1
L+ 1
L+ 1
L+ 1
L+ 1
L+ 1
L+ 1
L+ 1
L+ 1
L+ 1
L+ 1
L+ 1
L+ 1
L+ 1
L+ 1
L+ 1
L+ 1
L+ 1
L+ 1
L+ 1
L+ 1
L+ 1
L+ 1
L+ 1
L+ 1
L+ 1
L+ 1
L+ 1
L+ 1
L+ 1
L+ 1
L+ 1
L+ 1
L+ 1
L+ 1
L+ 1
L+ 1
L+ 1
L+ 1
L+ 1
L+ 1
L+ 1
L+ 1
L+ 1
L+ 1
L+ 1

OBJACOORD
1
33 -1.0

ACOORD
577
0 0 -1.0
1 0 1.0
202 0 1.0
203 0 -1.0
0 1 -1.0
2 1 1.0
204 1 1.0
205 1 -1.0
0 2 -1.0
3 2 1.0
206 2 1.0
207 2 -1.0
0 3 5.0
7 3 -1.0
223 3 1.0
0 4 10.0
8 4 -1.0
224 4 1.0
0 5 5.0
9 5 -1.0
225 5 1.0
0 6 -2.0
85 6 0.5
88 6 -0.5
94 6 -1.0
238 6 1.0
239 6 -1.0
0 7 -1.0
86 7 0.5
89 7 -0.5
95 7 -1.0
240 7 1.0
241 7 -1.0
0 8 -2.0
87 8 0.5
90 8 -0.5
96 8 -1.0
242 8 1.0
243 8 -1.0
0 9 80.0
49 9 -1.0
52 9 1.0
58 9 -1.0
244 9 1.0
0 10 90.0
50 10 -1.0
53 10 1.0
59 10 -1.0
245 10 1.0
0 11 120.0
51 11 -1.0
54 11 1.0
60 11 -1.0
246 11 1.0
0 12 285.0
64 12 -1.0
76 12 -1.0
247 12 1.0
0 13 390.0
68 13 -1.0
77 13 -1.0
248 13 1.0
0 14 350.0
72 14 -1.0
78 14 -1.0
249 14 1.0
0 15 290.0
79 15 -1.0
82 15 1.0
85 15 -1.0
88 15 1.0
97 15 -1.0
250 15 1.0
0 16 405.0
80 16 -1.0
83 16 1.0
86 16 -1.0
89 16 1.0
98 16 -1.0
251 16 1.0
0 17 190.0
81 17 -1.0
84 17 1.0
87 17 -1.0
90 17 1.0
99 17 -1.0
252 17 1.0
0 18 -5.0
100 18 -5.0
115 18 5.0
145 18 -1.0
146 18 -1.0
147 18 -1.0
149 18 -1.0
175 18 1.0
283 18 1.0
284 18 -1.0
0 19 -4.0
101 19 -4.0
116 19 4.0
145 19 -1.0
147 19 -1.0
148 19 -1.0
150 19 -1.0
176 19 1.0
285 19 1.0
286 19 -1.0
0 20 -6.0
102 20 -6.0
117 20 6.0
146 20 -1.0
148 20 -1.0
149 20 -1.0
150 20 -1.0
177 20 1.0
287 20 1.0
288 20 -1.0
0 21 -8.0
103 21 -8.0
118 21 8.0
151 21 -1.0
152 21 -1.0
153 21 -1.0
155 21 -1.0
178 21 1.0
289 21 1.0
290 21 -1.0
0 22 -7.0
104 22 -7.0
119 22 7.0
151 22 -1.0
153 22 -1.0
154 22 -1.0
156 22 -1.0
179 22 1.0
291 22 1.0
292 22 -1.0
0 23 -6.0
105 23 -6.0
120 23 6.0
152 23 -1.0
154 23 -1.0
155 23 -1.0
156 23 -1.0
180 23 1.0
293 23 1.0
294 23 -1.0
0 24 -6.0
106 24 -6.0
121 24 6.0
157 24 -1.0
158 24 -1.0
159 24 -1.0
161 24 -1.0
181 24 1.0
295 24 1.0
296 24 -1.0
0 25 -9.0
107 25 -9.0
122 25 9.0
157 25 -1.0
159 25 -1.0
160 25 -1.0
162 25 -1.0
182 25 1.0
297 25 1.0
298 25 -1.0
0 26 -4.0
108 26 -4.0
123 26 4.0
158 26 -1.0
160 26 -1.0
161 26 -1.0
162 26 -1.0
183 26 1.0
299 26 1.0
300 26 -1.0
0 27 -10.0
109 27 -10.0
124 27 10.0
163 27 -1.0
164 27 -1.0
165 27 -1.0
167 27 -1.0
184 27 1.0
301 27 1.0
302 27 -1.0
0 28 -9.0
110 28 -9.0
125 28 9.0
163 28 -1.0
165 28 -1.0
166 28 -1.0
168 28 -1.0
185 28 1.0
303 28 1.0
304 28 -1.0
0 29 -5.0
111 29 -5.0
126 29 5.0
164 29 -1.0
166 29 -1.0
167 29 -1.0
168 29 -1.0
186 29 1.0
305 29 1.0
306 29 -1.0
0 30 -6.0
112 30 -6.0
127 30 6.0
169 30 -1.0
170 30 -1.0
171 30 -1.0
173 30 -1.0
187 30 1.0
307 30 1.0
308 30 -1.0
0 31 -10.0
113 31 -10.0
128 31 10.0
169 31 -1.0
171 31 -1.0
172 31 -1.0
174 31 -1.0
188 31 1.0
309 31 1.0
310 31 -1.0
0 32 -6.0
114 32 -6.0
129 32 6.0
170 32 -1.0
172 32 -1.0
173 32 -1.0
174 32 -1.0
189 32 1.0
311 32 1.0
312 32 -1.0
0 33 -1.0
1 34 -1.0
13 34 1.0
25 34 -1.0
208 34 1.0
1 35 -1.0
31 35 1.0
43 35 -1.0
211 35 1.0
2 36 -1.0
17 36 1.0
26 36 -1.0
209 36 1.0
2 37 -1.0
35 37 1.0
44 37 -1.0
212 37 1.0
3 38 -1.0
21 38 1.0
27 38 -1.0
210 38 1.0
3 39 -1.0
39 39 1.0
45 39 -1.0
213 39 1.0
4 40 -1.0
16 40 -1.0
28 40 -1.0
214 40 1.0
4 41 -1.0
34 41 -1.0
46 41 -1.0
217 41 1.0
4 42 1.0
7 42 1.0
220 42 1.0
5 43 -1.0
20 43 -1.0
29 43 -1.0
215 43 1.0
5 44 -1.0
38 44 -1.0
47 44 -1.0
218 44 1.0
5 45 1.0
8 45 1.0
221 45 1.0
6 46 -1.0
24 46 -1.0
30 46 -1.0
216 46 1.0
6 47 -1.0
42 47 -1.0
48 47 -1.0
219 47 1.0
6 48 1.0
9 48 1.0
222 48 1.0
7 49 -1.0
10 49 1.0
226 49 1.0
8 50 -1.0
11 50 1.0
227 50 1.0
9 51 -1.0
12 51 1.0
228 51 1.0
10 52 -1.0
49 52 0.75
52 52 -0.75
55 52 -1.0
229 52 1.0
10 53 -1.0
61 53 1.0
73 53 -1.0
232 53 1.0
10 54 -1.0
79 54 1.0
82 54 -1.0
91 54 -1.0
235 54 1.0
11 55 -1.0
50 55 0.75
53 55 -0.75
56 55 -1.0
230 55 1.0
11 56 -1.0
65 56 1.0
74 56 -1.0
233 56 1.0
11 57 -1.0
80 57 1.0
83 57 -1.0
92 57 -1.0
236 57 1.0
12 58 -1.0
51 58 0.75
54 58 -0.75
57 58 -1.0
231 58 1.0
12 59 -1.0
69 59 1.0
75 59 -1.0
234 59 1.0
12 60 -1.0
81 60 1.0
84 60 -1.0
93 60 -1.0
237 60 1.0
15 61 1.0
16 61 1.0
16 62 -1.0
25 62 40.0
28 62 3.71357206670431
130 62 -1.0
131 62 -1.0
175 62 -1.0
176 62 1.0
177 62 1.0
190 62 1.0
193 62 1.0
196 62 1.0
199 62 1.0
253 62 1.0
254 62 -1.0
19 63 1.0
20 63 1.0
20 64 -1.0
26 64 40.0
29 64 3.71357206670431
130 64 1.0
132 64 -1.0
176 64 -1.0
177 64 1.0
191 64 1.0
194 64 1.0
197 64 1.0
200 64 1.0
255 64 1.0
256 64 -1.0
23 65 1.0
24 65 1.0
24 66 -1.0
27 66 40.0
30 66 3.71357206670431
131 66 1.0
132 66 1.0
177 66 -1.0
192 66 1.0
195 66 1.0
198 66 1.0
201 66 1.0
257 66 1.0
258 66 -1.0
33 67 1.0
34 67 1.2
34 68 -1.0
43 68 40.0
46 68 4.45628648004517
133 68 -1.0
134 68 -1.0
178 68 -1.0
179 68 1.0
180 68 1.0
190 68 1.0
193 68 1.0
196 68 1.0
199 68 1.0
259 68 1.0
260 68 -1.0
37 69 1.0
38 69 1.2
38 70 -1.0
44 70 40.0
47 70 4.45628648004517
133 70 1.0
135 70 -1.0
179 70 -1.0
180 70 1.0
191 70 1.0
194 70 1.0
197 70 1.0
200 70 1.0
261 70 1.0
262 70 -1.0
41 71 1.0
42 71 1.2
42 72 -1.0
45 72 40.0
48 72 4.45628648004517
134 72 1.0
135 72 1.0
180 72 -1.0
192 72 1.0
195 72 1.0
198 72 1.0
201 72 1.0
263 72 1.0
264 72 -1.0
49 73 -1.0
52 73 -1.0
55 73 4.45628648004517
58 73 3.34221486003388
136 73 -1.0
137 73 -1.0
181 73 -1.0
182 73 1.0
183 73 1.0
193 73 -1.0
265 73 1.0
266 73 -1.0
50 74 -1.0
53 74 -1.0
56 74 4.45628648004517
59 74 3.34221486003388
136 74 1.0
138 74 -1.0
182 74 -1.0
183 74 1.0
194 74 -1.0
267 74 1.0
268 74 -1.0
51 75 -1.0
54 75 -1.0
57 75 4.45628648004517
60 75 3.34221486003388
137 75 1.0
138 75 1.0
183 75 -1.0
195 75 -1.0
269 75 1.0
270 75 -1.0
63 76 1.0
64 76 1.5
64 77 -1.0
73 77 4.45628648004517
76 77 2.54515263975353
139 77 -1.0
140 77 -1.0
184 77 -1.0
185 77 1.0
186 77 1.0
196 77 -1.0
271 77 1.0
272 77 -1.0
67 78 1.0
68 78 1.5
68 79 -1.0
74 79 4.45628648004517
77 79 2.54515263975353
139 79 1.0
141 79 -1.0
185 79 -1.0
186 79 1.0
197 79 -1.0
273 79 1.0
274 79 -1.0
71 80 1.0
72 80 1.5
72 81 -1.0
75 81 4.45628648004517
78 81 2.54515263975353
140 81 1.0
141 81 1.0
186 81 -1.0
198 81 -1.0
275 81 1.0
276 81 -1.0
79 82 -1.0
82 82 -1.0
85 82 -1.0
88 82 -1.0
91 82 4.45628648004517
94 82 30.0
97 82 15.0
142 82 -1.0
143 82 -1.0
187 82 -1.0
188 82 1.0
189 82 1.0
199 82 -1.0
277 82 1.0
278 82 -1.0
80 83 -1.0
83 83 -1.0
86 83 -1.0
89 83 -1.0
92 83 4.45628648004517
95 83 30.0
98 83 15.0
142 83 1.0
144 83 -1.0
188 83 -1.0
189 83 1.0
200 83 -1.0
279 83 1.0
280 83 -1.0
81 84 -1.0
84 84 -1.0
87 84 -1.0
90 84 -1.0
93 84 4.45628648004517
96 84 30.0
99 84 15.0
143 84 1.0
144 84 1.0
189 84 -1.0
201 84 -1.0
281 84 1.0
282 84 -1.0
100 85 -1.0
115 85 1.0
101 86 -1.0
116 86 1.0
102 87 -1.0
117 87 1.0
103 88 -1.0
118 88 1.0
104 89 -1.0
119 89 1.0
105 90 -1.0
120 90 1.0
106 91 -1.0
121 91 1.0
107 92 -1.0
122 92 1.0
108 93 -1.0
123 93 1.0
109 94 -1.0
124 94 1.0
110 95 -1.0
125 95 1.0
111 96 -1.0
126 96 1.0
112 97 -1.0
127 97 1.0
113 98 -1.0
128 98 1.0
114 99 -1.0
129 99 1.0

BCOORD
114
13 1.0
14 1.0
16 1.0
17 1.0
18 1.0
20 1.0
21 1.0
22 1.0
24 1.0
31 1.0
32 1.0
34 1.0
35 1.0
36 1.0
38 1.0
39 1.0
40 1.0
42 1.0
49 1.0
50 1.0
51 1.0
52 1.0
53 1.0
54 1.0
61 1.0
62 1.0
64 1.0
65 1.0
66 1.0
68 1.0
69 1.0
70 1.0
72 1.0
79 1.0
80 1.0
81 1.0
82 1.0
83 1.0
84 1.0
85 1.0
86 1.0
87 1.0
88 1.0
89 1.0
90 1.0
145 1.0
146 1.0
147 1.0
148 1.0
149 1.0
150 1.0
151 1.0
152 1.0
153 1.0
154 1.0
155 1.0
156 1.0
157 1.0
158 1.0
159 1.0
160 1.0
161 1.0
162 1.0
163 1.0
164 1.0
165 1.0
166 1.0
167 1.0
168 1.0
169 1.0
170 1.0
171 1.0
172 1.0
173 1.0
174 1.0
190 -1.0
191 -1.0
192 -1.0
203 40.0
205 40.0
207 40.0
239 30.0
241 30.0
243 30.0
254 1.0
256 1.0
258 1.0
260 1.0
262 1.0
264 1.0
266 1.0
268 1.0
270 1.0
272 1.0
274 1.0
276 1.0
278 1.0
280 1.0
282 1.0
284 1.0
286 1.0
288 1.0
290 1.0
292 1.0
294 1.0
296 1.0
298 1.0
300 1.0
302 1.0
304 1.0
306 1.0
308 1.0
310 1.0
312 1.0
